c SAT Generator for power-law distributed variable frequencies
c -g u -v 20 -c 91 -k 3 -p 2.750000 -b 3.200000 -f /home/schmidt/Devel/ni-kop-sat/data/ensemble/ruf20-91/ruf20-91-958 -u 1 -U 1 -s 2552342984
p cnf 20 91
-7 8 15 0
-4 -9 16 0
-2 15 17 0
-6 -11 -17 0
5 10 14 0
-9 16 -18 0
7 -11 15 0
-11 -15 -16 0
-5 -13 19 0
-2 4 -10 0
3 4 -14 0
-1 8 -15 0
2 9 17 0
7 -11 13 0
4 8 -18 0
4 -18 19 0
-1 -12 20 0
-1 -6 -8 0
7 -8 -15 0
3 -16 -20 0
1 10 -15 0
4 6 10 0
-1 2 7 0
-1 9 12 0
-3 -13 -14 0
-9 11 -17 0
-12 14 16 0
-5 -12 -19 0
-3 -4 10 0
-10 12 16 0
6 -11 14 0
12 14 -18 0
-10 -12 -13 0
-16 18 19 0
2 3 -7 0
-6 7 10 0
-2 4 16 0
-6 -11 19 0
8 -11 -15 0
-2 4 9 0
1 -10 19 0
3 -12 14 0
-3 7 -11 0
4 -18 20 0
-1 2 -9 0
-4 17 -18 0
11 16 19 0
8 11 20 0
-12 -18 -20 0
-13 14 -20 0
-1 10 18 0
3 8 13 0
3 19 -20 0
8 -11 -20 0
-8 -14 17 0
2 -5 -9 0
-8 -10 12 0
-5 -14 18 0
1 8 19 0
2 -3 15 0
3 6 8 0
13 -14 -15 0
-1 -18 -19 0
11 -13 20 0
-9 -13 14 0
8 13 -17 0
-4 -12 -20 0
14 15 -19 0
-1 12 -18 0
5 -10 11 0
-3 -5 -19 0
3 4 -19 0
-1 9 -20 0
-1 7 -14 0
-6 8 -20 0
9 -11 -17 0
14 18 -19 0
-4 8 -19 0
5 7 9 0
-8 10 14 0
-3 18 19 0
10 -12 15 0
-14 16 19 0
-10 -11 -12 0
-3 10 15 0
3 4 -13 0
3 -10 15 0
-6 -8 17 0
6 12 13 0
-12 14 -19 0
-3 11 -15 0
